NAME : XML100_3341_05
DIMENSION : 101
NB_CLUSTERS : 3
CLUSTERING_ALG : DBSCAN
CLUSTERING_PARAMS : eps(160), minSamples(3)
CLUSTERS
1 0
2 1 4 6 9 11 13 18 21 22 23 25 29 30 38 40 43 44 45 47 48 51 52 54 56 57 58 63 65 69 70 72 73 74 76 79 82 84 85 90 93 95 99
3 2 3 5 7 8 10 12 14 15 16 17 19 20 24 26 27 28 31 32 33 34 35 36 37 39 41 42 46 49 50 53 55 59 60 61 62 64 66 67 68 71 75 77 78 80 81 83 86 87 88 89 91 92 94 96 97 98 100
EOF